;symbolic execution tree
(push)
(assert (le x0 java.io.Reader))
(check-sat)
(pop)
(push)
(assert (not (le x0 java.io.Reader)))
(check-sat)
(push)
(assert (le x2 net.n3.nanoxml.XMLElement))
(check-sat)
(push)
(assert (le x1 net.n3.nanoxml.XMLElement))
(check-sat)
(push)
(assert (le x3 java.lang.String))
(check-sat)
(pop)
(push)
(assert (not (le x3 java.lang.String)))
(check-sat)
(pop)
(push)
(assert (le x0 net.n3.nanoxml.StdXMLParser_currencysign_ContentReader))
(check-sat)
(pop)
(push)
(assert (not (le x0 net.n3.nanoxml.StdXMLParser_currencysign_ContentReader)))
(check-sat)
(push)
(assert (le x2 net.n3.nanoxml.XMLElement))
(check-sat)
(push)
(assert (le x0 net.n3.nanoxml.StdXMLParser_currencysign_ContentReader))
(check-sat)
(pop)
(push)
(assert (not (le x0 net.n3.nanoxml.StdXMLParser_currencysign_ContentReader)))
(check-sat)
(push)
(assert (le x1 net.n3.nanoxml.XMLElement))
(check-sat)
(pop)
(push)
(assert (not (le x1 net.n3.nanoxml.XMLElement)))
(check-sat)
(pop)
(push)
(assert (le x3 java.lang.String))
(check-sat)
(pop)
(push)
(assert (not (le x3 java.lang.String)))
(check-sat)
(push)
(assert (le x0 net.n3.nanoxml.StdXMLParser_currencysign_ContentReader))
(check-sat)
(pop)
(push)
(assert (not (le x0 net.n3.nanoxml.StdXMLParser_currencysign_ContentReader)))
(check-sat)
(push)
(assert (le x0 net.n3.nanoxml.StdXMLParser_currencysign_ContentReader))
(check-sat)
(pop)
(push)
(assert (not (le x0 net.n3.nanoxml.StdXMLParser_currencysign_ContentReader)))
(check-sat)
(pop)
(push)
(assert (le x0 net.n3.nanoxml.StdXMLParser_currencysign_ContentReader))
(check-sat)
(pop)
(push)
(assert (not (le x0 net.n3.nanoxml.StdXMLParser_currencysign_ContentReader)))
(check-sat)
(push)
(assert (le x1 net.n3.nanoxml.XMLElement))
(check-sat)
(pop)
(push)
(assert (not (le x1 net.n3.nanoxml.XMLElement)))
(check-sat)
(pop)
(push)
(assert (le x3 java.lang.String))
(check-sat)
(pop)
(push)
(assert (not (le x3 java.lang.String)))
(check-sat)
(pop)
(push)
(assert (le x1 net.n3.nanoxml.XMLElement))
(check-sat)
(pop)
(push)
(assert (not (le x1 net.n3.nanoxml.XMLElement)))
(check-sat)
(pop)
(pop)
(pop)
(push)
(assert (le x1 net.n3.nanoxml.XMLElement))
(check-sat)
(pop)
(push)
(assert (not (le x1 net.n3.nanoxml.XMLElement)))
(check-sat)
(pop)
(pop)
(push)
(assert (le x3 net.n3.nanoxml.XMLElement))
(check-sat)
(push)
(assert (le x3 net.n3.nanoxml.XMLElement))
(check-sat)
(pop)
(push)
(assert (not (le x3 net.n3.nanoxml.XMLElement)))
(check-sat)
(pop)
(pop)
(push)
(assert (not (le x3 net.n3.nanoxml.XMLElement)))
(check-sat)
(pop)
(push)
(assert (le x3 java.lang.String))
(check-sat)
(pop)
(push)
(assert (not (le x3 java.lang.String)))
(check-sat)
(push)
(assert (le x1 net.n3.nanoxml.XMLElement))
(check-sat)
(pop)
(push)
(assert (not (le x1 net.n3.nanoxml.XMLElement)))
(check-sat)
(pop)
(push)
(assert (le x2 net.n3.nanoxml.XMLElement))
(check-sat)
(push)
(assert (le x3 java.lang.String))
(check-sat)
(pop)
(push)
(assert (not (le x3 java.lang.String)))
(check-sat)
(push)
(assert (le x0 net.n3.nanoxml.StdXMLParser_currencysign_ContentReader))
(check-sat)
(pop)
(push)
(assert (not (le x0 net.n3.nanoxml.StdXMLParser_currencysign_ContentReader)))
(check-sat)
(push)
(assert (le x2 net.n3.nanoxml.XMLElement))
(check-sat)
(push)
(assert (le x3 java.lang.String))
(check-sat)
(pop)
(push)
(assert (not (le x3 java.lang.String)))
(check-sat)
(pop)
(pop)
(push)
(assert (not (le x2 net.n3.nanoxml.XMLElement)))
(check-sat)
(pop)
(pop)
(pop)
(push)
(assert (le x1 net.n3.nanoxml.XMLElement))
(check-sat)
(pop)
(push)
(assert (not (le x1 net.n3.nanoxml.XMLElement)))
(check-sat)
(pop)
(push)
(assert (le x2 net.n3.nanoxml.XMLElement))
(check-sat)
(pop)
(push)
(assert (not (le x2 net.n3.nanoxml.XMLElement)))
(check-sat)
(pop)
(push)
(assert (le x0 net.n3.nanoxml.StdXMLParser_currencysign_ContentReader))
(check-sat)
(pop)
(push)
(assert (not (le x0 net.n3.nanoxml.StdXMLParser_currencysign_ContentReader)))
(check-sat)
(push)
(assert (le x0 net.n3.nanoxml.StdXMLParser_currencysign_ContentReader))
(check-sat)
(pop)
(push)
(assert (not (le x0 net.n3.nanoxml.StdXMLParser_currencysign_ContentReader)))
(check-sat)
(push)
(assert (le x3 java.lang.String))
(check-sat)
(pop)
(push)
(assert (not (le x3 java.lang.String)))
(check-sat)
(pop)
(pop)
(pop)
(pop)
(push)
(assert (not (le x2 net.n3.nanoxml.XMLElement)))
(check-sat)
(pop)
(pop)
(push)
(assert (le x3 java.util.Properties))
(check-sat)
(push)
(assert (le x0 net.n3.nanoxml.StdXMLParser_currencysign_ContentReader))
(check-sat)
(pop)
(push)
(assert (not (le x0 net.n3.nanoxml.StdXMLParser_currencysign_ContentReader)))
(check-sat)
(pop)
(pop)
(push)
(assert (not (le x3 java.util.Properties)))
(check-sat)
(push)
(assert (le x1 net.n3.nanoxml.XMLElement))
(check-sat)
(pop)
(push)
(assert (not (le x1 net.n3.nanoxml.XMLElement)))
(check-sat)
(pop)
(push)
(assert (le x1 net.n3.nanoxml.XMLElement))
(check-sat)
(push)
(assert (le x3 java.lang.String))
(check-sat)
(pop)
(push)
(assert (not (le x3 java.lang.String)))
(check-sat)
(push)
(assert (le x3 java.lang.String))
(check-sat)
(pop)
(push)
(assert (not (le x3 java.lang.String)))
(check-sat)
(push)
(assert (le x3 java.lang.String))
(check-sat)
(pop)
(push)
(assert (not (le x3 java.lang.String)))
(check-sat)
(pop)
(pop)
(pop)
(pop)
(push)
(assert (not (le x1 net.n3.nanoxml.XMLElement)))
(check-sat)
(pop)
(pop)
(pop)
(pop)
(push)
(assert (not (le x2 net.n3.nanoxml.XMLElement)))
(check-sat)
(pop)
(push)
(assert (le x3 net.n3.nanoxml.XMLElement))
(check-sat)
(pop)
(push)
(assert (not (le x3 net.n3.nanoxml.XMLElement)))
(check-sat)
(pop)
(push)
(assert (le x0 net.n3.nanoxml.StdXMLParser_currencysign_ContentReader))
(check-sat)
(pop)
(push)
(assert (not (le x0 net.n3.nanoxml.StdXMLParser_currencysign_ContentReader)))
(check-sat)
(pop)
(push)
(assert (le x0 net.n3.nanoxml.StdXMLParser_currencysign_ContentReader))
(check-sat)
(pop)
(push)
(assert (not (le x0 net.n3.nanoxml.StdXMLParser_currencysign_ContentReader)))
(check-sat)
(push)
(assert (le x3 java.lang.String))
(check-sat)
(push)
(assert (le x0 net.n3.nanoxml.StdXMLParser_currencysign_ContentReader))
(check-sat)
(pop)
(push)
(assert (not (le x0 net.n3.nanoxml.StdXMLParser_currencysign_ContentReader)))
(check-sat)
(push)
(assert (le x1 net.n3.nanoxml.XMLElement))
(check-sat)
(push)
(assert (le x1 net.n3.nanoxml.XMLElement))
(check-sat)
(pop)
(push)
(assert (not (le x1 net.n3.nanoxml.XMLElement)))
(check-sat)
(pop)
(push)
(assert (le x1 net.n3.nanoxml.XMLElement))
(check-sat)
(pop)
(push)
(assert (not (le x1 net.n3.nanoxml.XMLElement)))
(check-sat)
(pop)
(push)
(assert (le x3 java.lang.String))
(check-sat)
(pop)
(push)
(assert (not (le x3 java.lang.String)))
(check-sat)
(pop)
(pop)
(push)
(assert (not (le x1 net.n3.nanoxml.XMLElement)))
(check-sat)
(pop)
(push)
(assert (le x3 java.lang.String))
(check-sat)
(pop)
(push)
(assert (not (le x3 java.lang.String)))
(check-sat)
(pop)
(pop)
(pop)
(push)
(assert (not (le x3 java.lang.String)))
(check-sat)
(push)
(assert (le x1 net.n3.nanoxml.XMLElement))
(check-sat)
(pop)
(push)
(assert (not (le x1 net.n3.nanoxml.XMLElement)))
(check-sat)
(pop)
(push)
(assert (le x1 net.n3.nanoxml.XMLElement))
(check-sat)
(pop)
(push)
(assert (not (le x1 net.n3.nanoxml.XMLElement)))
(check-sat)
(pop)
(pop)
(pop)
(pop)
(push)
(assert (le x2 net.n3.nanoxml.XMLElement))
(check-sat)
(push)
(assert (le x3 java.lang.String))
(check-sat)
(push)
(assert (le x1 net.n3.nanoxml.XMLElement))
(check-sat)
(push)
(assert (le x2 net.n3.nanoxml.XMLElement))
(check-sat)
(pop)
(push)
(assert (not (le x2 net.n3.nanoxml.XMLElement)))
(check-sat)
(pop)
(pop)
(push)
(assert (not (le x1 net.n3.nanoxml.XMLElement)))
(check-sat)
(pop)
(push)
(assert (le x1 net.n3.nanoxml.XMLElement))
(check-sat)
(pop)
(push)
(assert (not (le x1 net.n3.nanoxml.XMLElement)))
(check-sat)
(pop)
(push)
(assert (le x0 java.io.Reader))
(check-sat)
(pop)
(push)
(assert (not (le x0 java.io.Reader)))
(check-sat)
(pop)
(push)
(assert (le x1 net.n3.nanoxml.XMLElement))
(check-sat)
(pop)
(push)
(assert (not (le x1 net.n3.nanoxml.XMLElement)))
(check-sat)
(pop)
(push)
(assert (le x3 java.lang.String))
(check-sat)
(push)
(assert (le x3 java.lang.String))
(check-sat)
(push)
(assert (le x0 java.io.Reader))
(check-sat)
(pop)
(push)
(assert (not (le x0 java.io.Reader)))
(check-sat)
(push)
(assert (le x3 java.lang.String))
(check-sat)
(push)
(assert (le x3 java.lang.StringBuffer))
(check-sat)
(pop)
(push)
(assert (not (le x3 java.lang.StringBuffer)))
(check-sat)
(pop)
(pop)
(push)
(assert (not (le x3 java.lang.String)))
(check-sat)
(pop)
(push)
(assert (le x3 java.lang.String))
(check-sat)
(pop)
(push)
(assert (not (le x3 java.lang.String)))
(check-sat)
(pop)
(pop)
(pop)
(push)
(assert (not (le x3 java.lang.String)))
(check-sat)
(pop)
(push)
(assert (le x3 java.lang.String))
(check-sat)
(push)
(assert (le x0 java.io.Reader))
(check-sat)
(pop)
(push)
(assert (not (le x0 java.io.Reader)))
(check-sat)
(push)
(assert (le x1 net.n3.nanoxml.XMLElement))
(check-sat)
(push)
(assert (not (le x0 java.io.InputStreamReader)))
(check-sat)
(push)
(assert (not (le x0 java.io.StringReader)))
(check-sat)
(push)
(assert (not (le x0 java.io.CharArrayReader)))
(check-sat)
(push)
(assert (le x0 java.io.Reader))
(check-sat)
(push)
(assert (not (le x0 java.io.BufferedReader)))
(check-sat)
(push)
(assert (not (le x0 java.io.FilterReader)))
(check-sat)
(pop)
(pop)
(pop)
(pop)
(pop)
(pop)
(push)
(assert (le x0 java.io.FilterReader))
(check-sat)
(push)
(assert (not (le x0 java.io.PushbackReader)))
(check-sat)
(pop)
(pop)
(push)
(assert (le x0 java.io.PushbackReader))
(check-sat)
(pop)
(push)
(assert (le x0 java.io.CharArrayReader))
(check-sat)
(pop)
(push)
(assert (not (le x0 java.io.LineNumberReader)))
(check-sat)
(push)
(assert (le x0 java.io.BufferedReader))
(check-sat)
(pop)
(pop)
(push)
(assert (le x0 java.io.StringReader))
(check-sat)
(pop)
(push)
(assert (le x0 java.io.LineNumberReader))
(check-sat)
(pop)
(push)
(assert (le x0 java.io.InputStreamReader))
(check-sat)
(pop)
(pop)
(push)
(assert (not (le x1 net.n3.nanoxml.XMLElement)))
(check-sat)
(pop)
(pop)
(pop)
(push)
(assert (not (le x3 java.lang.String)))
(check-sat)
(pop)
(pop)
(push)
(assert (not (le x3 java.lang.String)))
(check-sat)
(pop)
(push)
(assert (le x0 java.io.Reader))
(check-sat)
(pop)
(push)
(assert (not (le x0 java.io.Reader)))
(check-sat)
(push)
(assert (not (le x0 java.io.InputStreamReader)))
(check-sat)
(push)
(assert (not (le x0 java.io.StringReader)))
(check-sat)
(push)
(assert (not (le x0 java.io.CharArrayReader)))
(check-sat)
(push)
(assert (le x0 java.io.Reader))
(check-sat)
(push)
(assert (not (le x0 java.io.BufferedReader)))
(check-sat)
(push)
(assert (not (le x0 java.io.FilterReader)))
(check-sat)
(pop)
(pop)
(pop)
(pop)
(pop)
(pop)
(push)
(assert (le x0 java.io.FilterReader))
(check-sat)
(push)
(assert (not (le x0 java.io.PushbackReader)))
(check-sat)
(pop)
(pop)
(push)
(assert (le x0 java.io.PushbackReader))
(check-sat)
(pop)
(push)
(assert (le x0 java.io.CharArrayReader))
(check-sat)
(pop)
(push)
(assert (not (le x0 java.io.LineNumberReader)))
(check-sat)
(push)
(assert (le x0 java.io.BufferedReader))
(check-sat)
(pop)
(pop)
(push)
(assert (le x0 java.io.StringReader))
(check-sat)
(pop)
(push)
(assert (le x0 java.io.LineNumberReader))
(check-sat)
(pop)
(push)
(assert (le x0 java.io.InputStreamReader))
(check-sat)
(pop)
(pop)
(pop)
(push)
(assert (not (le x3 java.lang.String)))
(check-sat)
(pop)
(push)
(assert (not (le x0 java.io.InputStreamReader)))
(check-sat)
(push)
(assert (not (le x0 java.io.StringReader)))
(check-sat)
(push)
(assert (not (le x0 java.io.CharArrayReader)))
(check-sat)
(push)
(assert (le x0 java.io.Reader))
(check-sat)
(push)
(assert (not (le x0 java.io.BufferedReader)))
(check-sat)
(push)
(assert (not (le x0 java.io.FilterReader)))
(check-sat)
(pop)
(pop)
(pop)
(pop)
(pop)
(pop)
(push)
(assert (le x0 java.io.FilterReader))
(check-sat)
(push)
(assert (not (le x0 java.io.PushbackReader)))
(check-sat)
(pop)
(pop)
(push)
(assert (le x0 java.io.PushbackReader))
(check-sat)
(pop)
(push)
(assert (le x0 java.io.CharArrayReader))
(check-sat)
(pop)
(push)
(assert (not (le x0 java.io.LineNumberReader)))
(check-sat)
(push)
(assert (le x0 java.io.BufferedReader))
(check-sat)
(pop)
(pop)
(push)
(assert (le x0 java.io.StringReader))
(check-sat)
(pop)
(push)
(assert (le x0 java.io.LineNumberReader))
(check-sat)
(pop)
(push)
(assert (le x0 java.io.InputStreamReader))
(check-sat)
(pop)
(pop)
(push)
(assert (not (le x2 net.n3.nanoxml.XMLElement)))
(check-sat)
(pop)
(pop)
(push)
(assert (not (le x1 net.n3.nanoxml.XMLElement)))
(check-sat)
(pop)
(pop)
(push)
(assert (not (le x2 net.n3.nanoxml.XMLElement)))
(check-sat)
(pop)
(pop)
